c File: flat50_3_0.col
c
c SOURCE: Joseph Culberson (joe@cs.ualberta.ca)
c DESCRIPTION: Quasi-random coloring problem
c              generated with flatness = 0
c                             probability = 0.139
c                             known coloring = 3
c                             random seed = 1192
c              Creation Date:  Tue Jun  9 12:03:23 1998
c Maximum degree = 8 Minimum degree = 1
c p edge 50 115
c cnf created by edge2cnf
p cnf 150 545
-1 -2 0
-1 -3 0
-2 -3 0
1 2 3 0
-4 -5 0
-4 -6 0
-5 -6 0
4 5 6 0
-7 -8 0
-7 -9 0
-8 -9 0
7 8 9 0
-10 -11 0
-10 -12 0
-11 -12 0
10 11 12 0
-13 -14 0
-13 -15 0
-14 -15 0
13 14 15 0
-16 -17 0
-16 -18 0
-17 -18 0
16 17 18 0
-19 -20 0
-19 -21 0
-20 -21 0
19 20 21 0
-22 -23 0
-22 -24 0
-23 -24 0
22 23 24 0
-25 -26 0
-25 -27 0
-26 -27 0
25 26 27 0
-28 -29 0
-28 -30 0
-29 -30 0
28 29 30 0
-31 -32 0
-31 -33 0
-32 -33 0
31 32 33 0
-34 -35 0
-34 -36 0
-35 -36 0
34 35 36 0
-37 -38 0
-37 -39 0
-38 -39 0
37 38 39 0
-40 -41 0
-40 -42 0
-41 -42 0
40 41 42 0
-43 -44 0
-43 -45 0
-44 -45 0
43 44 45 0
-46 -47 0
-46 -48 0
-47 -48 0
46 47 48 0
-49 -50 0
-49 -51 0
-50 -51 0
49 50 51 0
-52 -53 0
-52 -54 0
-53 -54 0
52 53 54 0
-55 -56 0
-55 -57 0
-56 -57 0
55 56 57 0
-58 -59 0
-58 -60 0
-59 -60 0
58 59 60 0
-61 -62 0
-61 -63 0
-62 -63 0
61 62 63 0
-64 -65 0
-64 -66 0
-65 -66 0
64 65 66 0
-67 -68 0
-67 -69 0
-68 -69 0
67 68 69 0
-70 -71 0
-70 -72 0
-71 -72 0
70 71 72 0
-73 -74 0
-73 -75 0
-74 -75 0
73 74 75 0
-76 -77 0
-76 -78 0
-77 -78 0
76 77 78 0
-79 -80 0
-79 -81 0
-80 -81 0
79 80 81 0
-82 -83 0
-82 -84 0
-83 -84 0
82 83 84 0
-85 -86 0
-85 -87 0
-86 -87 0
85 86 87 0
-88 -89 0
-88 -90 0
-89 -90 0
88 89 90 0
-91 -92 0
-91 -93 0
-92 -93 0
91 92 93 0
-94 -95 0
-94 -96 0
-95 -96 0
94 95 96 0
-97 -98 0
-97 -99 0
-98 -99 0
97 98 99 0
-100 -101 0
-100 -102 0
-101 -102 0
100 101 102 0
-103 -104 0
-103 -105 0
-104 -105 0
103 104 105 0
-106 -107 0
-106 -108 0
-107 -108 0
106 107 108 0
-109 -110 0
-109 -111 0
-110 -111 0
109 110 111 0
-112 -113 0
-112 -114 0
-113 -114 0
112 113 114 0
-115 -116 0
-115 -117 0
-116 -117 0
115 116 117 0
-118 -119 0
-118 -120 0
-119 -120 0
118 119 120 0
-121 -122 0
-121 -123 0
-122 -123 0
121 122 123 0
-124 -125 0
-124 -126 0
-125 -126 0
124 125 126 0
-127 -128 0
-127 -129 0
-128 -129 0
127 128 129 0
-130 -131 0
-130 -132 0
-131 -132 0
130 131 132 0
-133 -134 0
-133 -135 0
-134 -135 0
133 134 135 0
-136 -137 0
-136 -138 0
-137 -138 0
136 137 138 0
-139 -140 0
-139 -141 0
-140 -141 0
139 140 141 0
-142 -143 0
-142 -144 0
-143 -144 0
142 143 144 0
-145 -146 0
-145 -147 0
-146 -147 0
145 146 147 0
-148 -149 0
-148 -150 0
-149 -150 0
148 149 150 0
-100 -1 0
-101 -2 0
-102 -3 0
-112 -1 0
-113 -2 0
-114 -3 0
-70 -4 0
-71 -5 0
-72 -6 0
-82 -4 0
-83 -5 0
-84 -6 0
-85 -4 0
-86 -5 0
-87 -6 0
-67 -7 0
-68 -8 0
-69 -9 0
-73 -7 0
-74 -8 0
-75 -9 0
-76 -7 0
-77 -8 0
-78 -9 0
-94 -7 0
-95 -8 0
-96 -9 0
-124 -7 0
-125 -8 0
-126 -9 0
-133 -7 0
-134 -8 0
-135 -9 0
-76 -10 0
-77 -11 0
-78 -12 0
-94 -10 0
-95 -11 0
-96 -12 0
-100 -10 0
-101 -11 0
-102 -12 0
-115 -10 0
-116 -11 0
-117 -12 0
-118 -10 0
-119 -11 0
-120 -12 0
-142 -10 0
-143 -11 0
-144 -12 0
-145 -13 0
-146 -14 0
-147 -15 0
-55 -16 0
-56 -17 0
-57 -18 0
-61 -16 0
-62 -17 0
-63 -18 0
-73 -16 0
-74 -17 0
-75 -18 0
-91 -16 0
-92 -17 0
-93 -18 0
-115 -16 0
-116 -17 0
-117 -18 0
-118 -16 0
-119 -17 0
-120 -18 0
-130 -16 0
-131 -17 0
-132 -18 0
-148 -16 0
-149 -17 0
-150 -18 0
-112 -19 0
-113 -20 0
-114 -21 0
-121 -19 0
-122 -20 0
-123 -21 0
-142 -19 0
-143 -20 0
-144 -21 0
-145 -19 0
-146 -20 0
-147 -21 0
-109 -22 0
-110 -23 0
-111 -24 0
-61 -25 0
-62 -26 0
-63 -27 0
-91 -25 0
-92 -26 0
-93 -27 0
-94 -25 0
-95 -26 0
-96 -27 0
-130 -25 0
-131 -26 0
-132 -27 0
-136 -25 0
-137 -26 0
-138 -27 0
-100 -28 0
-101 -29 0
-102 -30 0
-103 -28 0
-104 -29 0
-105 -30 0
-112 -28 0
-113 -29 0
-114 -30 0
-118 -28 0
-119 -29 0
-120 -30 0
-61 -31 0
-62 -32 0
-63 -33 0
-67 -31 0
-68 -32 0
-69 -33 0
-70 -31 0
-71 -32 0
-72 -33 0
-124 -31 0
-125 -32 0
-126 -33 0
-127 -31 0
-128 -32 0
-129 -33 0
-79 -34 0
-80 -35 0
-81 -36 0
-97 -34 0
-98 -35 0
-99 -36 0
-100 -34 0
-101 -35 0
-102 -36 0
-124 -34 0
-125 -35 0
-126 -36 0
-55 -37 0
-56 -38 0
-57 -39 0
-73 -37 0
-74 -38 0
-75 -39 0
-94 -37 0
-95 -38 0
-96 -39 0
-97 -37 0
-98 -38 0
-99 -39 0
-121 -37 0
-122 -38 0
-123 -39 0
-52 -40 0
-53 -41 0
-54 -42 0
-73 -40 0
-74 -41 0
-75 -42 0
-130 -40 0
-131 -41 0
-132 -42 0
-133 -40 0
-134 -41 0
-135 -42 0
-139 -40 0
-140 -41 0
-141 -42 0
-148 -40 0
-149 -41 0
-150 -42 0
-61 -43 0
-62 -44 0
-63 -45 0
-91 -43 0
-92 -44 0
-93 -45 0
-109 -43 0
-110 -44 0
-111 -45 0
-130 -43 0
-131 -44 0
-132 -45 0
-79 -46 0
-80 -47 0
-81 -48 0
-82 -46 0
-83 -47 0
-84 -48 0
-88 -46 0
-89 -47 0
-90 -48 0
-112 -46 0
-113 -47 0
-114 -48 0
-121 -46 0
-122 -47 0
-123 -48 0
-139 -46 0
-140 -47 0
-141 -48 0
-55 -49 0
-56 -50 0
-57 -51 0
-76 -49 0
-77 -50 0
-78 -51 0
-82 -49 0
-83 -50 0
-84 -51 0
-88 -49 0
-89 -50 0
-90 -51 0
-103 -49 0
-104 -50 0
-105 -51 0
-106 -49 0
-107 -50 0
-108 -51 0
-109 -49 0
-110 -50 0
-111 -51 0
-106 -52 0
-107 -53 0
-108 -54 0
-115 -52 0
-116 -53 0
-117 -54 0
-139 -52 0
-140 -53 0
-141 -54 0
-145 -52 0
-146 -53 0
-147 -54 0
-106 -58 0
-107 -59 0
-108 -60 0
-118 -58 0
-119 -59 0
-120 -60 0
-127 -58 0
-128 -59 0
-129 -60 0
-121 -61 0
-122 -62 0
-123 -63 0
-145 -61 0
-146 -62 0
-147 -63 0
-112 -64 0
-113 -65 0
-114 -66 0
-145 -64 0
-146 -65 0
-147 -66 0
-103 -67 0
-104 -68 0
-105 -69 0
-112 -67 0
-113 -68 0
-114 -69 0
-121 -67 0
-122 -68 0
-123 -69 0
-133 -67 0
-134 -68 0
-135 -69 0
-106 -70 0
-107 -71 0
-108 -72 0
-118 -70 0
-119 -71 0
-120 -72 0
-124 -70 0
-125 -71 0
-126 -72 0
-127 -73 0
-128 -74 0
-129 -75 0
-121 -76 0
-122 -77 0
-123 -78 0
-118 -79 0
-119 -80 0
-120 -81 0
-133 -79 0
-134 -80 0
-135 -81 0
-139 -79 0
-140 -80 0
-141 -81 0
-130 -82 0
-131 -83 0
-132 -84 0
-124 -85 0
-125 -86 0
-126 -87 0
-127 -85 0
-128 -86 0
-129 -87 0
-148 -85 0
-149 -86 0
-150 -87 0
-103 -88 0
-104 -89 0
-105 -90 0
-106 -88 0
-107 -89 0
-108 -90 0
-109 -88 0
-110 -89 0
-111 -90 0
-124 -88 0
-125 -89 0
-126 -90 0
-112 -91 0
-113 -92 0
-114 -93 0
-133 -94 0
-134 -95 0
-135 -96 0
-139 -94 0
-140 -95 0
-141 -96 0
-142 -94 0
-143 -95 0
-144 -96 0
-145 -94 0
-146 -95 0
-147 -96 0
-103 -100 0
-104 -101 0
-105 -102 0
-112 -100 0
-113 -101 0
-114 -102 0
